Read MPS format model from file dat/rmp/DER_96_16384_20.mps
Reading time = 1.75 seconds
: 16480 rows, 57632 columns, 4979861 nonzeros
Gurobi Optimizer version 9.0.0 build v9.0.0rc2 (linux64)
Optimize a model with 16480 rows, 57632 columns and 4979861 nonzeros
Model fingerprint: 0xf6cb3b94
Coefficient statistics:
  Matrix range     [6e-05, 1e+01]
  Objective range  [8e-01, 1e+03]
  Bounds range     [1e+05, 1e+05]
  RHS range        [1e+00, 1e+00]
Ordering time: 0.04s

Barrier statistics:
 AA' NZ     : 1.477e+06
 Factor NZ  : 1.653e+06 (roughly 40 MBytes of memory)
 Factor Ops : 1.725e+08 (less than 1 second per iteration)
 Threads    : 1

                  Objective                Residual
Iter       Primal          Dual         Primal    Dual     Compl     Time
   0   6.22774750e+09 -5.42670062e+08  7.88e+07 2.52e-02  1.65e+06     1s
   1   1.05236252e+08 -8.44210616e+07  1.17e+06 3.64e-12  2.60e+04     2s
   2   7.26047303e+06 -2.42538419e+07  7.73e+04 5.46e-12  2.07e+03     2s
   3   3.70725126e+05 -1.06795322e+07  2.59e+03 3.64e-12  2.33e+02     2s
   4   1.15618274e+05 -8.32262210e+05  1.30e+00 3.64e-12  1.64e+01     3s
   5   1.15132404e+05  8.12268640e+04  6.92e-10 3.64e-12  5.87e-01     3s
   6   1.14390459e+05  1.06007649e+05  5.70e-10 7.28e-12  1.45e-01     4s
   7   1.13590733e+05  1.11670708e+05  2.53e-10 3.64e-12  3.33e-02     4s
   8   1.13249274e+05  1.12656820e+05  3.70e-10 3.64e-12  1.03e-02     5s
   9   1.13063560e+05  1.12751531e+05  1.02e-09 1.82e-12  5.41e-03     5s
  10   1.12975593e+05  1.12793661e+05  1.76e-09 1.82e-12  3.15e-03     6s
  11   1.12940966e+05  1.12820095e+05  3.27e-09 3.64e-12  2.09e-03     6s
  12   1.12911746e+05  1.12842071e+05  6.50e-09 1.82e-12  1.21e-03     6s
  13   1.12889641e+05  1.12856319e+05  5.00e-09 3.64e-12  5.77e-04     7s
  14   1.12874108e+05  1.12864715e+05  1.43e-08 3.64e-12  1.63e-04     8s
  15   1.12871582e+05  1.12865867e+05  9.97e-09 1.82e-12  9.90e-05     8s
  16   1.12870035e+05  1.12867332e+05  1.36e-08 1.82e-12  4.68e-05     9s
  17   1.12869197e+05  1.12867922e+05  1.18e-08 1.82e-12  2.21e-05     9s
  18   1.12868895e+05  1.12868031e+05  1.10e-08 1.82e-12  1.50e-05     9s
  19   1.12868640e+05  1.12868130e+05  2.06e-08 1.82e-12  8.83e-06    10s
  20   1.12868464e+05  1.12868229e+05  2.61e-08 3.64e-12  4.07e-06    10s
  21   1.12868413e+05  1.12868240e+05  3.41e-08 3.64e-12  2.99e-06    11s
  22   1.12868359e+05  1.12868256e+05  6.80e-08 1.82e-12  1.78e-06    11s
  23   1.12868296e+05  1.12868268e+05  2.15e-07 3.64e-12  4.85e-07    12s
  24   1.12868277e+05  1.12868269e+05  4.24e-06 1.82e-12  1.54e-07    12s
  25   1.12868274e+05  1.12868269e+05  5.09e-06 1.82e-12  8.29e-08    12s
  26   1.12868271e+05  1.12868269e+05  3.91e-06 2.73e-12  2.66e-08    13s
  27   1.12868270e+05  1.12868269e+05  1.15e-05 3.64e-12  3.62e-09    13s
  28   1.12868269e+05  1.12868269e+05  1.03e-05 5.46e-12  6.97e-11    13s
  29   1.12868269e+05  1.12868269e+05  4.75e-06 3.64e-12  1.11e-13    14s
  30   1.12868269e+05  1.12868269e+05  2.37e-06 3.64e-12  1.61e-16    14s
  31   1.12868269e+05  1.12868269e+05  8.79e-09 3.64e-12  1.61e-19    14s

Barrier solved model in 31 iterations and 14.49 seconds
Optimal objective 1.12868269e+05

Solve time: 14.495305569
Barrier iterations: 31
